c sursa https://logictools.org/prop.html
p cnf 10 40
-8 8 4
8 -4
-8 -2 10
1 -1
9 -1 2
-6 9 -7
10 3
5 4 10
6 8 -7
6 3
-10 -1 4
9 -7 -1
2 -4 9
9 1 6
-7 -2 -4
-3 7 8
-9 2 -2
-6 -5 -2
4 -2 -10
-7 -3 -4
4 -1 -3
-1 -5 -3
-10 8
-8 3 10
8 -1
8 -2 -1
-10 -4 10
9 -7 1
3 -3 1
3 5 -7
6 -6 2
4 7 -3
-9 1 -6
1 -6 8
9 2
1 -5 -6
-9 -6 -8
8 2 9
-1 8 9
-7 -3 -6
